nNurses = 134;
nHours = 27;
minHours = 7;
maxHours = 15;
maxConsec = 6;
maxPresence = 21;
demand = [15, 16, 19, 16, 15, 20, 16, 18, 22, 17, 16, 14, 14, 16, 15, 12, 15, 16, 13, 18, 18, 14, 15, 10, 7, 10, 8];
